(set-logic QF_BV)
(declare-fun _substvar_1798_ () Bool)
(declare-fun _substvar_232_ () (_ BitVec 11))
(declare-fun _substvar_228_ () (_ BitVec 11))
(declare-fun _substvar_223_ () (_ BitVec 11))
(declare-fun _substvar_1475_ () Bool)
(declare-fun _substvar_240_ () (_ BitVec 11))
(declare-fun _substvar_1484_ () Bool)
(declare-fun _substvar_225_ () (_ BitVec 11))
(declare-fun _substvar_236_ () (_ BitVec 11))
(declare-fun _substvar_134_ () (_ BitVec 11))
(declare-fun _substvar_218_ () (_ BitVec 11))
(declare-fun _substvar_242_ () (_ BitVec 11))
(declare-fun _substvar_1801_ () Bool)
(assert (or false false false false false false false false false false false false false false false false false false false false false false false false false false false false false false false false false (and true _substvar_1801_ (= _substvar_223_ (_ bv0 11))) false false false false false false false false false false false false false false (and true true _substvar_1798_ (= _substvar_223_ (bvsub _substvar_134_ _substvar_218_))) false false false false false false))
(assert (or false false false false false false false false false false false false false false false false false false false false false false false false false false false false false false false false false false false false false false false false false false false false false false false false false false false false false false false false false false false false false false false (and true _substvar_1475_ (= _substvar_225_ (bvsub _substvar_218_ (_ bv1 11)))) false false false false false false false false false false false))
(assert (or false false false false false false false false false false false false false false false false false false false false false false false false false false false false false false false false false false false false false false false false false false false false false false false false false false false false false false false false (and true true true (= _substvar_232_ (bvsub _substvar_134_ (_ bv0 11)))) false false false false false false false false false false false false false false false false false false false false false false false false false false false false false false false false false false false false false false false false false false false false false false false false false false false false false false false false false false false false false false false false false false false))
(assert (or false false false false false false false false false false false false false false false false false false false false false false false false false false false false false false false false false false false false false false false false false false false false false false false false false false false false false false false false false false false false false false false false false false false false false false false false false false false false false false false false false false false false false false false false false false false false false false false false false false false false false false false false false false false false false false false false false false false false false false false false false false false false false false false false false false false false false false false false (and true true _substvar_1484_ (= _substvar_240_ (_ bv0 11))) (and true true true (= _substvar_240_ (bvsub _substvar_225_ _substvar_223_))) false false false false false false false false false false false false false false false false false false false false false false false false false false false false false false false false false false false false false false false false false false false false false false false))
(assert (or false false false false false false false false false false false false false false false false false false false false false false false false false false false false false false false false false false false false false false false false false false false false false false false false false false false false false false false false false false false false false false false false false false false false false false false false false false false false false false false false false false false false false false false false false false false false false false false false false false false false false false false false false false false false false false false false false false false false false false false false false false false false false false false false false false false false false false false false false false false false false false false false false false false false false false false false false false false false false false false false false false false false false false false false false false false false false false false false false false false false false false false false false false false false false (and true true (bvugt _substvar_232_ (_ bv0 11)) (= _substvar_242_ (bvsub _substvar_232_ _substvar_228_))) false false false false false false false false false false false false false false false false false false false false false false false false false false false false false false))
(assert (or false false false false false false false (= (_ bv491 11) _substvar_236_) (= (_ bv491 11) _substvar_240_) (= (_ bv491 11) _substvar_242_)))
(assert (or false false (= (_ bv331 11) _substvar_218_) (= (_ bv331 11) _substvar_223_) (= (_ bv331 11) _substvar_225_) (= (_ bv331 11) _substvar_228_) false (= (_ bv331 11) _substvar_236_) (= (_ bv331 11) _substvar_240_) false))
(assert (or false false false (= (_ bv53 11) _substvar_223_) (= (_ bv53 11) _substvar_225_) (= (_ bv53 11) _substvar_228_) false (= (_ bv53 11) _substvar_236_) (= (_ bv53 11) _substvar_240_) false))
(assert (or false (= (_ bv519 11) _substvar_134_) (= (_ bv519 11) _substvar_218_) (= (_ bv519 11) _substvar_223_) false (= (_ bv519 11) _substvar_228_) false (= (_ bv519 11) _substvar_236_) (= (_ bv519 11) _substvar_240_) (= (_ bv519 11) _substvar_242_)))
(assert (or false false false false false (= (_ bv391 11) _substvar_228_) false (= (_ bv391 11) _substvar_236_) (= (_ bv391 11) _substvar_240_) (= (_ bv391 11) _substvar_242_)))
(check-sat)
(exit)
